unsat
(:cnf-encoding-aux-vars 127
 :elim-unconstrained    3
 :max-memory            20.80
 :memory                19.31
 :nlsat-arith-var       30
 :nlsat-atoms           282
 :nlsat-bool-var        159
 :nlsat-clauses         709
 :nlsat-conflicts       173
 :nlsat-decisions       1210
 :nlsat-propagations    5512
 :num-allocs            1709108
 :rlimit-count          206103
 :solve-eqs-elim-vars   148
 :solve-eqs-steps       588
 :time                  0.15
 :total-time            0.17)
